






































































































71 24 43 69 36 65 
22 35 33 16 67 68 18 
28 64 15 30 25 60 38 
31 34 13 23 5 70 40 
57 12 62 54 37 19 17 
52 55 14 66 61 4 48 
47 9 1 49 0 53 32 39 
20 42 58 41 51 50 8 
46 21 44 45 74 26 2 73 
6 27 76 56 11 10 7 
59 3 29 63 75 72 

